c User generated cnf file
p cnf 10 28
-2 2 10 0 
9 -10 1 0 
7 4 -3 0 
-10 4 8 0 
2 7 -3 0 
9 -8 7 0 
-1 6 2 0 
-3 1 7 0 
3 -5 3 0 
1 -9 10 0 
-2 7 3 0 
6 8 -3 0 
9 4 -10 0 
5 -9 5 0 
6 -6 4 0 
-6 5 1 0 
2 -3 3 0 
1 -6 9 0 
-4 10 4 0 
9 10 -4 0 
3 -8 2 0 
2 9 -4 0 
9 -8 7 0 
3 -1 8 0 
-9 3 5 0 
10 1 -7 0 
-5 1 1 0 
9 -9 7 0 
